55 52 41 28 20 11 90 82 85 79 95 56 92 91 77 93 80 87 61 58 75 76 59 53 51 57 50 48 47 46 45 43 38 36 33 31 30 27 25 23 22 21 19 18 17 16 15 13 12 10 9 8 7 6 5 4 3 2 0 37 29 32 62 42 64 66 26 34 39 49 68 65 70 60 72 14 69 67 83 74 44 78 98 71 1 40 84 54 73 81 88 63 24 86 96 94 99 97 89 35 

